# Cost: 578

# Tail Head Net
900 940 1
901 900 1
902 901 1
903 902 1
904 903 1
905 904 1
906 905 1
907 906 1
908 907 1
909 908 1
910 909 1
911 910 1
912 911 1
913 912 1
914 913 1
915 914 1
916 915 1
917 916 1
918 917 1
919 918 1
920 919 1
940 980 1
979 1019 1
980 979 1
1019 1059 1
1059 1099 1
1099 1139 1
1139 1179 1
1179 1219 1
1219 1259 1
1259 1299 1
1282 1281 1
1283 1282 1
1284 1283 1
1285 1284 1
1286 1285 1
1287 1286 1
1288 1287 1
1289 1288 1
1290 1289 1
1291 1290 1
1292 1291 1
1293 1292 1
1294 1293 1
1295 1294 1
1296 1295 1
1297 1296 1
1298 1297 1
1299 1298 1
1299 1339 1
1339 1379 1
1379 1419 1
1419 1459 1
1459 1499 1
1499 1539 1
1539 1579 1
362 361 2
363 362 2
364 363 2
365 364 2
405 365 2
445 405 2
485 445 2
525 485 2
565 525 2
605 565 2
645 605 2
685 645 2
725 685 2
765 725 2
805 765 2
805 806 2
806 807 2
807 808 2
808 809 2
809 810 2
810 811 2
811 812 2
812 813 2
813 814 2
814 815 2
815 816 2
816 817 2
817 818 2
818 819 2
819 820 2
820 821 2
821 822 2
822 823 2
823 824 2
824 825 2
825 826 2
826 827 2
827 828 2
828 829 2
829 830 2
830 831 2
831 832 2
832 833 2
833 834 2
834 835 2
835 836 2
836 837 2
837 838 2
838 839 2
839 840 2
2405 805 2
2445 2405 2
2485 2445 2
2525 2485 2
2565 2525 2
2605 2565 2
2645 2605 2
2685 2645 2
2725 2685 2
2765 2725 2
2805 2765 2
2845 2805 2
2885 2845 2
1365 2965 2
2925 2885 2
1405 1365 2
2965 2925 2
1445 1405 2
1485 1445 2
1525 1485 2
1565 1525 2
161 1761 3
1761 1762 3
1762 1763 3
1763 1764 3
1764 1765 3
1765 1766 3
1766 1767 3
1767 1768 3
1768 1769 3
1769 1770 3
1770 1771 3
1771 1811 3
1811 1851 3
1851 1891 3
1891 1931 3
1931 1971 3
1971 2011 3
2011 2051 3
2051 2091 3
2091 2131 3
2131 2171 3
2171 2211 3
2211 2251 3
2251 2291 3
2291 2331 3
2331 2371 3
2371 2411 3
2411 2451 3
2451 2491 3
2491 2531 3
2531 2571 3
2571 2611 3
2611 2651 3
2651 2691 3
2691 2731 3
2731 2771 3
2771 2811 3
2811 2851 3
2851 2891 3
1300 1301 3
1301 1302 3
1302 1303 3
1303 1304 3
1304 1305 3
1305 1306 3
1306 1307 3
1307 1308 3
1308 1309 3
1309 1310 3
1310 1311 3
1311 1312 3
1312 1313 3
1313 1314 3
1314 1315 3
1315 1316 3
1316 1317 3
1317 1318 3
1318 1319 3
1319 1320 3
1331 1371 3
2891 2892 3
2891 2931 3
2892 2893 3
2893 2894 3
2894 2895 3
2895 2896 3
2896 2897 3
2897 2898 3
2898 2899 3
2899 2900 3
2900 1300 3
1371 1411 3
2931 1331 3
1411 1451 3
1451 1491 3
1491 1531 3
1531 1571 3
241 281 4
281 321 4
321 322 4
322 1922 4
1922 1962 4
1962 2002 4
2002 2042 4
2042 2082 4
2082 2122 4
2122 2162 4
2162 2202 4
2202 2242 4
2242 2282 4
2282 2322 4
2322 2362 4
2362 2402 4
2402 2442 4
2442 2482 4
2482 2522 4
2522 2562 4
2562 2602 4
2602 2642 4
1044 1045 4
1045 1046 4
1046 1047 4
1047 1048 4
1048 1049 4
1049 1050 4
1050 1051 4
1051 1052 4
1052 1053 4
1053 1054 4
1054 1055 4
1055 1056 4
1056 1057 4
1057 1058 4
1058 2658 4
1060 1061 4
1061 1062 4
1062 1063 4
1063 1064 4
1064 1065 4
1065 1066 4
1066 1067 4
1067 1068 4
1068 1069 4
1069 1070 4
1070 1071 4
1071 1072 4
1072 1073 4
1073 1074 4
1074 1075 4
1075 1076 4
1076 1077 4
1077 1078 4
1078 1079 4
1079 1080 4
2642 2643 4
2642 2682 4
2643 2644 4
2644 1044 4
2658 2659 4
2659 2660 4
2660 1060 4
2682 2722 4
2722 2762 4
2762 2802 4
2802 2842 4
2842 2882 4
1322 1362 4
2882 2922 4
1362 1402 4
2922 1322 4
1402 1442 4
1442 1482 4
1482 1522 4
1522 1562 4
  2  42 5
  3   2 5
 42  82 5
  4   3 5
  5   4 5
  6   5 5
  7   6 5
  8   7 5
  9   8 5
 10   9 5
 11  10 5
 12  11 5
 13  12 5
 14  13 5
 15  14 5
 16  15 5
 17  16 5
 18  17 5
 19  18 5
 20  19 5
 21  20 5
 22  21 5
 23  22 5
 24  23 5
 25  24 5
 26  25 5
 82 122 5
122 162 5
162 202 5
202 201 5
1574 1573 6
1575 1574 6
1589 3189 6
1590 1589 6
1591 1590 6
1592 1591 6
1593 1592 6
1594 1593 6
3175 1575 6
3176 3175 6
3177 3176 6
3178 3177 6
3179 3178 6
3180 3179 6
3181 3180 6
3182 3181 6
3183 3182 6
3184 3183 6
3185 3184 6
3186 3185 6
3187 3186 6
3188 3187 6
3189 3188 6
961 1001 7
1001 1002 7
1002 1042 7
1042 1043 7
1043 1083 7
1083 1084 7
1084 1085 7
1085 1086 7
1086 1087 7
1087 1088 7
1088 1089 7
1089 1090 7
1090 1091 7
1091 1092 7
1092 1093 7
1093 1094 7
1094 1095 7
1095 1096 7
1096 1097 7
1097 1098 7
1098 2698 7
2698 2699 7
2699 2739 7
2739 2740 7
2740 2780 7
2780 2781 7
2781 2821 7
2821 2861 7
2861 2901 7
2901 2902 7
1342 1343 7
2902 2942 7
1343 1344 7
1344 1345 7
1345 1346 7
1346 1347 7
1347 1348 7
1348 1349 7
1349 1350 7
1350 1351 7
1351 1352 7
1352 1392 7
2942 1342 7
1392 1432 7
1432 1433 7
1433 1473 7
1473 1474 7
1474 1514 7
1514 1515 7
1515 1555 7
1555 1595 7
 34  74 8
 35  34 8
 74 114 8
113 153 8
114 113 8
153 193 8
193 233 8
232 272 8
233 232 8
272 312 8
312 352 8
352 392 8
392 432 8
432 472 8
472 512 8
512 552 8
551 591 8
552 551 8
591 631 8
631 671 8
670 710 8
671 670 8
710 750 8
750 790 8
790 2390 8
2390 2430 8
2430 2470 8
2470 2510 8
2510 2550 8
2550 2590 8
2590 2630 8
2630 2670 8
2669 2709 8
2670 2669 8
2709 2749 8
2749 2789 8
2787 2827 8
2788 2787 8
2789 2788 8
2827 2867 8
2865 2905 8
2866 2865 8
2867 2866 8
2905 2945 8
1384 1424 8
2944 2984 8
2945 2944 8
1424 1464 8
2984 1384 8
1464 1504 8
1504 1544 8
1543 1583 8
1544 1543 8
 48  49 9
 49  50 9
 50  51 9
 51  52 9
 52  53 9
 53  54 9
 54  55 9
 55  56 9
 56  57 9
 57  58 9
 58  59 9
 59  60 9
 60  61 9
 61  62 9
 62  63 9
 63  64 9
 64  65 9
 65  66 9
 66  67 9
 67  68 9
 68  69 9
 69  29 9
 86  87 9
 87  88 9
 88  48 9
126  86 9
166 126 9
205 206 9
206 166 9
245 205 9
285 245 9
323 324 9
324 325 9
325 285 9
1923 323 9
403 2003 9
1963 1923 9
443 403 9
2003 1963 9
482 483 9
483 443 9
521 522 9
522 482 9
1541 1581 10
3141 1541 10
3142 3141 10
3143 3142 10
3144 3143 10
3145 3144 10
3146 3145 10
3147 3146 10
3148 3147 10
3149 3148 10
3150 3149 10
3151 3150 10
3152 3151 10
3153 3152 10
1597 3197 10
3193 3153 10
3194 3193 10
3195 3194 10
3196 3195 10
3197 3196 10
1475 3075 11
1476 1475 11
1477 1476 11
1478 1477 11
1479 1478 11
1480 1479 11
3068 3108 11
3069 3068 11
3070 3069 11
3071 3070 11
3072 3071 11
3073 3072 11
3074 3073 11
3075 3074 11
1538 1578 11
3098 3138 11
3099 3098 11
3100 3099 11
3101 3100 11
3102 3101 11
3103 3102 11
3104 3103 11
3105 3104 11
3106 3105 11
3107 3106 11
3108 3107 11
3138 1538 11
881 841 12
921 881 12
922 921 12
923 922 12
924 923 12
925 924 12
926 925 12
927 926 12
928 927 12
929 928 12
930 929 12
931 930 12
932 931 12
933 932 12
934 933 12
935 934 12
975 935 12
976 975 12
977 976 12
2577 977 12
2578 2577 12
2579 2578 12
2619 2579 12
2620 2619 12
2621 2620 12
2661 2621 12
2701 2661 12
2741 2701 12
2742 2741 12
2782 2742 12
1223 2823 12
2783 2782 12
1224 1223 12
1225 1224 12
1226 1225 12
1227 1226 12
1228 1227 12
1229 1228 12
1230 1229 12
1231 1230 12
1232 1231 12
1233 1232 12
1234 1233 12
1235 1234 12
1236 1235 12
1237 1236 12
1238 1237 12
1239 1238 12
1240 1239 12
2823 2783 12
